data/OOEBPP/R750/BPP_750_75_0.2_0.8_4.txt.ins
750
75 75
1 60 614
2 60 158
3 60 470
4 60 75
5 60 24
6 60 487
7 60 633
8 60 714
9 60 439
10 60 39
11 60 232
12 60 80
13 60 332
14 60 415
15 60 207
16 60 693
17 59 499
18 59 218
19 59 769
20 59 613
21 59 947
22 59 199
23 59 156
24 59 726
25 59 850
26 59 973
27 59 625
28 59 450
29 59 793
30 59 364
31 58 482
32 58 142
33 58 132
34 58 336
35 58 545
36 58 886
37 58 946
38 58 682
39 58 389
40 58 466
41 58 269
42 58 568
43 58 598
44 58 731
45 58 171
46 58 836
47 58 30
48 58 122
49 58 966
50 58 946
51 58 447
52 58 954
53 58 970
54 58 88
55 58 864
56 57 924
57 57 763
58 57 266
59 57 289
60 57 369
61 57 667
62 57 990
63 57 709
64 57 501
65 57 370
66 57 682
67 57 410
68 57 32
69 57 920
70 57 88
71 57 829
72 57 757
73 57 195
74 57 526
75 57 578
76 56 409
77 56 136
78 56 946
79 56 251
80 56 747
81 56 93
82 56 65
83 56 221
84 56 951
85 56 813
86 56 74
87 56 85
88 56 797
89 56 924
90 56 504
91 56 388
92 55 260
93 55 514
94 55 551
95 55 991
96 55 917
97 55 224
98 55 410
99 55 471
100 55 669
101 55 591
102 55 357
103 55 376
104 54 923
105 54 863
106 54 852
107 54 842
108 54 835
109 54 860
110 54 475
111 54 539
112 54 468
113 54 371
114 54 480
115 54 740
116 54 677
117 54 773
118 53 956
119 53 508
120 53 398
121 53 648
122 53 889
123 53 743
124 53 642
125 53 170
126 53 878
127 53 397
128 53 593
129 53 678
130 53 651
131 52 986
132 52 826
133 52 752
134 52 172
135 52 333
136 52 755
137 52 170
138 52 195
139 52 581
140 52 545
141 52 525
142 52 275
143 52 435
144 52 980
145 52 42
146 52 945
147 52 738
148 52 439
149 52 552
150 51 456
151 51 416
152 51 296
153 51 337
154 51 343
155 51 564
156 51 545
157 51 356
158 51 365
159 51 157
160 51 251
161 51 494
162 51 750
163 51 967
164 51 887
165 51 414
166 51 454
167 51 226
168 51 122
169 51 68
170 50 883
171 50 54
172 50 800
173 50 525
174 50 995
175 50 903
176 50 900
177 50 722
178 50 437
179 50 748
180 50 552
181 50 507
182 49 581
183 49 804
184 49 781
185 49 548
186 49 334
187 49 844
188 49 206
189 49 411
190 49 340
191 49 822
192 49 536
193 49 202
194 49 637
195 49 403
196 49 927
197 48 390
198 48 926
199 48 801
200 48 204
201 48 150
202 48 138
203 48 699
204 48 691
205 48 941
206 48 827
207 48 246
208 48 502
209 48 320
210 48 297
211 48 863
212 48 934
213 48 291
214 48 618
215 48 139
216 48 551
217 48 572
218 47 199
219 47 864
220 47 257
221 47 433
222 47 740
223 47 189
224 47 170
225 47 85
226 47 169
227 47 199
228 47 500
229 47 541
230 47 659
231 46 603
232 46 238
233 46 98
234 46 270
235 46 356
236 46 861
237 46 498
238 46 726
239 46 935
240 46 922
241 46 773
242 46 711
243 46 700
244 46 846
245 46 764
246 46 118
247 46 818
248 46 914
249 46 600
250 46 731
251 46 711
252 46 689
253 46 73
254 46 247
255 45 693
256 45 712
257 45 514
258 45 797
259 45 472
260 45 447
261 45 714
262 45 732
263 45 435
264 45 102
265 45 783
266 45 142
267 45 128
268 45 158
269 45 511
270 45 578
271 45 935
272 45 198
273 45 502
274 45 296
275 45 337
276 45 152
277 45 394
278 45 208
279 44 258
280 44 841
281 44 707
282 44 260
283 44 873
284 44 408
285 44 947
286 44 812
287 44 28
288 44 195
289 44 877
290 44 345
291 44 834
292 44 657
293 43 331
294 43 254
295 43 768
296 43 20
297 43 189
298 43 596
299 43 662
300 43 95
301 43 672
302 43 839
303 43 927
304 43 61
305 43 56
306 43 957
307 43 486
308 43 642
309 43 521
310 43 455
311 43 781
312 43 874
313 43 767
314 43 502
315 43 12
316 42 939
317 42 180
318 42 135
319 42 37
320 42 973
321 42 611
322 42 746
323 42 451
324 42 448
325 42 16
326 42 531
327 41 590
328 41 227
329 41 210
330 41 934
331 41 685
332 41 872
333 41 512
334 41 56
335 41 726
336 41 116
337 41 23
338 41 100
339 41 617
340 41 744
341 41 317
342 41 229
343 41 298
344 41 598
345 41 636
346 41 33
347 41 239
348 41 394
349 41 418
350 40 358
351 40 654
352 40 531
353 40 538
354 40 135
355 40 626
356 40 48
357 40 117
358 40 16
359 40 34
360 40 699
361 40 851
362 40 61
363 40 61
364 40 673
365 39 982
366 39 84
367 39 115
368 39 48
369 39 643
370 39 406
371 39 213
372 39 568
373 39 716
374 39 952
375 39 13
376 39 973
377 39 762
378 39 255
379 38 551
380 38 669
381 38 849
382 38 973
383 38 182
384 38 756
385 38 916
386 38 24
387 38 184
388 38 429
389 38 103
390 38 50
391 38 663
392 38 358
393 38 898
394 38 586
395 37 643
396 37 760
397 37 17
398 37 285
399 37 280
400 37 150
401 37 448
402 37 939
403 37 396
404 37 534
405 37 229
406 37 52
407 37 247
408 37 518
409 37 1
410 36 298
411 36 568
412 36 170
413 36 456
414 36 912
415 36 349
416 36 48
417 36 583
418 36 176
419 36 363
420 36 420
421 36 46
422 36 272
423 36 656
424 36 612
425 36 66
426 35 967
427 35 63
428 35 978
429 35 202
430 35 228
431 35 420
432 35 48
433 35 713
434 35 941
435 35 455
436 35 32
437 35 897
438 35 101
439 35 891
440 35 310
441 35 739
442 35 896
443 34 75
444 34 100
445 34 578
446 34 817
447 34 501
448 34 49
449 34 570
450 34 308
451 34 114
452 33 480
453 33 209
454 33 400
455 33 751
456 33 443
457 33 742
458 33 136
459 33 352
460 33 751
461 33 254
462 33 406
463 33 137
464 32 49
465 32 343
466 32 831
467 32 69
468 32 356
469 32 136
470 32 8
471 32 924
472 32 838
473 32 737
474 32 385
475 32 91
476 32 977
477 32 675
478 32 566
479 32 863
480 31 349
481 31 786
482 31 212
483 31 691
484 31 15
485 31 308
486 31 117
487 31 946
488 31 247
489 31 213
490 31 546
491 31 989
492 31 523
493 31 461
494 31 256
495 30 629
496 30 7
497 30 568
498 30 160
499 30 139
500 30 34
501 30 852
502 30 1000
503 30 785
504 30 923
505 30 634
506 30 374
507 30 209
508 30 784
509 30 790
510 30 109
511 29 270
512 29 839
513 29 277
514 29 866
515 29 286
516 29 506
517 29 972
518 29 347
519 29 130
520 29 990
521 29 402
522 29 125
523 29 869
524 28 365
525 28 216
526 28 383
527 28 331
528 28 774
529 28 551
530 28 818
531 28 318
532 28 66
533 28 408
534 28 314
535 28 914
536 28 155
537 28 18
538 28 202
539 28 358
540 28 197
541 28 538
542 28 863
543 28 342
544 28 228
545 28 998
546 28 469
547 27 388
548 27 644
549 27 883
550 27 598
551 27 785
552 27 631
553 27 566
554 27 559
555 27 599
556 27 852
557 27 780
558 27 458
559 26 161
560 26 177
561 26 488
562 26 74
563 26 668
564 26 22
565 26 594
566 26 939
567 26 709
568 26 788
569 26 936
570 26 39
571 26 561
572 26 141
573 26 129
574 26 263
575 26 661
576 26 0
577 26 283
578 26 424
579 25 332
580 25 773
581 25 754
582 25 570
583 25 414
584 25 672
585 25 114
586 25 230
587 25 654
588 25 13
589 25 835
590 25 431
591 25 793
592 25 691
593 24 968
594 24 54
595 24 922
596 24 141
597 24 789
598 24 382
599 24 369
600 24 707
601 23 869
602 23 549
603 23 336
604 23 390
605 23 23
606 23 266
607 23 158
608 23 984
609 23 558
610 23 205
611 23 806
612 23 378
613 23 858
614 22 125
615 22 479
616 22 444
617 22 7
618 22 840
619 22 178
620 22 167
621 22 338
622 22 753
623 22 135
624 22 327
625 22 128
626 22 897
627 22 358
628 21 189
629 21 136
630 21 747
631 21 711
632 21 663
633 21 494
634 21 268
635 21 720
636 21 134
637 21 814
638 21 127
639 21 383
640 21 857
641 21 906
642 21 346
643 21 664
644 21 318
645 20 954
646 20 614
647 20 147
648 20 359
649 20 174
650 20 101
651 20 228
652 20 618
653 20 474
654 20 760
655 20 461
656 20 718
657 20 316
658 20 612
659 20 85
660 20 907
661 20 705
662 19 272
663 19 4
664 19 952
665 19 497
666 19 267
667 19 724
668 19 192
669 19 540
670 19 22
671 19 652
672 19 109
673 19 963
674 19 396
675 18 581
676 18 316
677 18 888
678 18 622
679 18 201
680 18 465
681 18 814
682 18 10
683 18 121
684 18 823
685 18 219
686 18 651
687 18 36
688 18 724
689 18 371
690 18 265
691 18 864
692 18 39
693 17 23
694 17 575
695 17 842
696 17 707
697 17 702
698 17 945
699 17 83
700 17 783
701 17 21
702 17 907
703 17 386
704 17 946
705 17 903
706 17 769
707 17 662
708 17 431
709 17 713
710 17 775
711 17 357
712 17 661
713 16 305
714 16 13
715 16 184
716 16 866
717 16 297
718 16 944
719 16 732
720 16 75
721 16 367
722 16 833
723 16 320
724 16 955
725 16 219
726 16 680
727 16 421
728 16 505
729 16 780
730 16 783
731 16 842
732 16 281
733 16 447
734 16 592
735 15 520
736 15 451
737 15 172
738 15 874
739 15 414
740 15 859
741 15 322
742 15 568
743 15 717
744 15 214
745 15 69
746 15 201
747 15 366
748 15 465
749 15 554
750 15 830
