results/OOEBPP/BPP_750_75_0.2_0.8_4.txt.ins.log
223,222.742,13.581,OPT,6569,0,0,AI,0,0.0358744,3.07623,0.312886,13.008,0,2,0,55,54
